$comment
 DFT(BP86)/TZ(d,p) SP  biphenyl
 Angle: 0.0
 $end

$rem
 JOBTYPE SP
 EXCHANGE B
 CORRELATION P86
 BASIS TZ(d,p)
 UNRESTRICTED FALSE
 PRINT_ORBITALS FALSE
 MAX_SCF_CYCLES $$$
$end

$molecule
0 1
C	-1.481133	-1.211445	0.0
C	-2.878369	-1.221831	0.0
C	-0.747319	-0.004143	0.0
C	-3.595846	-0.020564	0.0
C	-2.891793	1.188615	0.0
C	-1.494461	1.195084	0.0
H	-0.988428	2.160976	0.0
H	-3.432896	2.137017	0.0
H	-4.687552	-0.02652	0.0
H	-0.962498	-2.170451	0.0
H	-3.408061	-2.176748	0.0
C	2.891509	-1.188974	0.0
C	1.494199	-1.19548	0.0
C	3.595513	0.020212	0.0
C	0.747016	0.003728	0.0
C	1.480816	1.211064	0.0
C	2.878043	1.221481	0.0
H	3.432644	-2.137347	0.0
H	0.988498	-2.160934	0.0
H	3.407936	2.176734	0.0
H	0.962183	2.169992	0.0
H	4.687218	0.026184	0.0
$end
